;; Preprocessed for Astral solver
(set-info :status sat)
;; variables
(declare-const x0 Loc)
(declare-const x1 Loc)
(declare-const x2 Loc)
(declare-const x3 Loc)
(declare-const x4 Loc)
(declare-const x5 Loc)
(declare-const x6 Loc)
(declare-const x7 Loc)
(declare-const x8 Loc)
(declare-const x9 Loc)
(declare-const x10 Loc)
(declare-const x11 Loc)
(declare-const x12 Loc)
(declare-const x13 Loc)
(declare-const x14 Loc)
(declare-const x15 Loc)
(declare-const x16 Loc)
(declare-const x17 Loc)
(declare-const x18 Loc)
(declare-const x19 Loc)
(declare-const x20 Loc)
(declare-const x21 Loc)

(assert 
		(sep 
			(= nil nil)
		(sep 
			(pto x17 x11)
			(pto x9 x8)
			(pto x16 x11)
			(pto x13 x14)
			(ls x14 x3 )
			(pto x6 x10)
			(ls x1 x16 )
			(pto x4 x1)
			(ls x8 x4 )
			(pto x2 x9)
			(pto x10 x5)
			(pto x5 x11)
			(pto x3 x14)
			(pto x11 x17)
			(pto x12 x4)
			(pto x15 x3)
			(pto x7 x11)
		)

		)

)

(assert (not 
		(sep 
			(ls x12 x4 )
			(ls x15 x3 )
			(ls x6 x11 )
			(ls x7 x11 )
			(ls x13 x14 )
			(ls x14 x3 )
			(ls x2 x1 )
			(ls x1 x16 )
			(ls x17 x11 )
			(ls x16 x17 )
			(ls x3 x14 )
		)

))

(check-sat)
